p cnf 47 47
-14 -22 -4 0
-16 -14 -10 0
-20 -11 -2 0
-8 -26 -17 0
-7 -14 28 -19 0
-26 -2 31 0
32 -18 -10 0
-16 33 -12 0
34 -11 -17 0
-23 -5 35 0
-22 36 -26 -1 0
-4 37 -2 -25 0
-17 38 -10 0
-8 -20 39 0
-16 40 -11 0
-8 41 -13 -19 0
-7 42 -13 -20 0
-24 -4 45 0
-14 -45 29 0
-22 -6 46 0
-46 -14 30 0
1 44 -3 0
-14 -1 -25 0
25 43 -27 0
20 -41 -40 -4 -1 0
-23 -20 -26 0
-8 -5 -2 0
-38 -42 -25 8 -22 0
-7 -21 -47 0
-48 -19 -9 0
-31 -28 0
-28 -34 0
-28 -35 0
-32 47 0
48 -33 0
-39 -30 0
-39 -29 0
-29 -34 0
-30 -34 0
-43 -35 31 0
-31 47 -33 0
-44 -35 31 0
-32 -31 48 0
-40 38 -41 0
-23 -38 -37 0
40 -38 -42 0
-40 -5 -36 0
